NAME: kroC100
COMMENT: Quick (5min) local search tour for kroC100 (23631.933576704963)
TYPE: TOUR
DIMENSION: 100
TOUR_SECTION: 1 53 12 46 24 32 7 82 78 9 26 61 37 29 18 49 93 14 19 99 92 96 87 52 11 84 48 51 16 63 44 66 10 45 97 81 33 100 36 57 74 69 73 3 59 41 60 4 40 15 13 79 64 20 42 55 67 31 47 6 54 75 22 8 17 25 90 34 58 98 88 28 39 38 71 56 43 5 86 50 72 83 62 23 95 94 91 76 70 21 89 30 68 35 2 77 80 65 27 85 -1
EOF